
List of user-set options:

                                    Name   Value                used
                        file_print_level = 5                     yes
                   hessian_approximation = limited-memory        yes
                           linear_solver = mumps                 yes
                                max_iter = 150                   yes
                             output_file = IPOPT.out             yes
                             print_level = 0                     yes
                      print_user_options = yes                   yes
                                      sb = yes                   yes
                                     tol = 1e-05                 yes
This is Ipopt version 3.14.4, running with linear solver MUMPS 5.2.1.

Number of nonzeros in equality constraint Jacobian...:     4096
Number of nonzeros in inequality constraint Jacobian.:        0
Number of nonzeros in Lagrangian Hessian.............:        0

Total number of variables............................:     4096
                     variables with only lower bounds:        0
                variables with lower and upper bounds:     4096
                     variables with only upper bounds:        0
Total number of equality constraints.................:        1
Total number of inequality constraints...............:        0
        inequality constraints with only lower bounds:        0
   inequality constraints with lower and upper bounds:        0
        inequality constraints with only upper bounds:        0

iter    objective    inf_pr   inf_du lg(mu)  ||d||  lg(rg) alpha_du alpha_pr  ls
   0  4.6102183e+06 1.07e-14 1.00e+02   0.0 0.00e+00    -  0.00e+00 0.00e+00   0
   1  3.4562216e+06 3.33e-16 1.40e+01   0.9 1.05e+01    -  5.96e-02 2.03e-02f  3
   2  2.8344696e+06 8.33e-17 5.71e+00  -0.6 6.68e-02    -  1.00e+00 1.00e+00f  1
   3  1.9368610e+06 5.55e-17 3.63e+00  -1.1 1.29e-01    -  9.82e-01 1.00e+00f  1
   4  1.2611001e+06 5.00e-16 1.45e+00  -1.5 1.15e-01    -  9.91e-01 1.00e+00f  1
   5  7.8949137e+05 5.27e-16 8.28e-01  -1.9 1.63e-01    -  1.00e+00 1.00e+00f  1
   6  4.6990436e+05 1.67e-16 4.15e-01  -2.1 1.94e-01    -  9.96e-01 1.00e+00f  1
   7  2.8361470e+05 6.94e-16 2.45e-01  -2.2 2.23e-01    -  9.96e-01 1.00e+00f  1
   8  2.1895982e+05 1.94e-16 1.16e-01  -2.5 1.91e-01    -  9.87e-01 5.50e-01f  1
   9  1.5630754e+05 5.00e-16 1.56e-01  -2.7 2.55e-01    -  9.87e-01 6.92e-01f  1
iter    objective    inf_pr   inf_du lg(mu)  ||d||  lg(rg) alpha_du alpha_pr  ls
  10  1.1628290e+05 1.39e-16 3.48e-02  -2.7 4.91e-01    -  9.66e-01 8.42e-01f  1
  11  9.9265809e+04 8.33e-17 3.13e-02  -2.9 3.15e-01    -  9.56e-01 5.97e-01f  1
  12  1.4385546e+05 1.39e-16 5.42e-02  -0.9 3.01e+01    -  2.24e-02 1.72e-02f  1
  13  1.2627263e+05 4.44e-16 2.91e-02  -2.5 5.27e-01    -  1.00e+00 6.54e-01f  1
  14  1.1019296e+05 3.05e-16 2.09e-02  -3.7 1.58e+00    -  2.15e-01 1.62e-01f  1
  15  9.8596865e+04 3.33e-16 1.10e-02  -3.7 1.02e+00    -  4.20e-01 2.19e-01f  1
  16  8.1723294e+04 3.61e-16 1.43e-02  -3.0 5.44e-01    -  9.06e-01 6.04e-01f  1
  17  7.3210508e+04 1.39e-16 1.15e-02  -3.1 4.36e-01    -  7.87e-01 7.02e-01f  1
  18  6.8664218e+04 2.78e-16 1.25e-02  -3.3 4.91e-01    -  9.81e-01 5.00e-01f  1
  19  6.5219180e+04 5.27e-16 2.08e-02  -3.4 9.07e-01    -  9.90e-01 3.57e-01f  1
iter    objective    inf_pr   inf_du lg(mu)  ||d||  lg(rg) alpha_du alpha_pr  ls
  20  6.4762585e+04 2.50e-16 8.54e-03  -3.1 6.13e-01    -  6.02e-01 4.77e-01f  2
  21  6.2520837e+04 1.94e-16 1.09e-02  -3.4 3.91e-01    -  9.50e-01 4.32e-01f  1
  22  5.9315316e+04 2.22e-16 1.07e-02  -3.5 9.49e-01    -  9.72e-01 3.90e-01f  1
  23  5.6294383e+04 1.67e-16 2.82e-02  -3.5 1.14e+00    -  8.46e-01 3.22e-01f  1
  24  5.4042895e+04 6.94e-16 1.32e-02  -3.5 4.81e-01    -  6.33e-01 6.23e-01f  1
  25  5.2751537e+04 3.61e-16 8.66e-03  -3.5 4.08e-01    -  9.73e-01 7.07e-01f  1
  26  5.1690877e+04 8.33e-17 5.51e-03  -3.6 7.06e-01    -  9.80e-01 5.27e-01f  1
  27  5.0273371e+04 8.33e-17 6.28e-03  -3.7 1.15e+00    -  1.00e+00 3.25e-01f  1
  28  4.9099081e+04 0.00e+00 6.13e-03  -3.7 7.61e-01    -  9.67e-01 5.80e-01f  1
  29  4.8862857e+04 5.27e-16 6.12e-03  -3.7 6.13e-01    -  7.64e-01 3.73e-01f  2
iter    objective    inf_pr   inf_du lg(mu)  ||d||  lg(rg) alpha_du alpha_pr  ls
  30  4.8213555e+04 8.33e-17 3.47e-03  -3.7 6.43e-01    -  9.81e-01 4.24e-01f  1
  31  4.6844929e+04 8.33e-17 4.37e-03  -3.8 9.04e-01    -  9.81e-01 5.35e-01f  1
  32  4.5890711e+04 1.94e-16 3.60e-03  -3.9 8.25e-01    -  8.66e-01 3.93e-01f  1
  33  4.5316448e+04 5.83e-16 6.17e-03  -3.8 8.29e-01    -  6.33e-01 3.93e-01f  1
  34  4.4782532e+04 1.94e-16 6.18e-03  -3.9 7.34e-01    -  9.91e-01 4.21e-01f  1
  35  4.4026491e+04 1.11e-16 5.63e-03  -4.0 9.02e-01    -  1.00e+00 4.24e-01f  1
  36  4.3636646e+04 1.11e-16 5.34e-03  -4.0 7.23e-01    -  9.77e-01 4.41e-01f  1
  37  4.3481623e+04 2.50e-16 3.49e-03  -3.9 5.30e-01    -  7.74e-01 5.32e-01f  1
  38  4.3406899e+04 1.67e-16 1.97e-03  -4.0 6.73e-01    -  9.58e-01 3.71e-01f  1
  39  4.3383750e+04 3.89e-16 2.15e-03  -4.0 1.50e+00    -  5.06e-01 1.30e-01f  2
iter    objective    inf_pr   inf_du lg(mu)  ||d||  lg(rg) alpha_du alpha_pr  ls
  40  4.3337925e+04 3.61e-16 3.22e-03  -4.0 1.12e+00    -  4.72e-01 2.21e-01f  2
  41  4.2488049e+04 1.94e-16 5.62e-02  -4.1 5.37e-01    -  1.00e+00 5.52e-01f  1
  42  4.1648093e+04 2.22e-16 5.62e-03  -4.1 2.68e-01    -  7.11e-01 8.27e-01f  1
  43  4.0878925e+04 7.77e-16 5.68e-03  -4.3 2.75e-01    -  9.97e-01 7.10e-01f  1
  44  4.0481094e+04 3.33e-16 3.46e-03  -4.4 1.71e+00    -  4.12e-01 1.67e-01f  1
  45  4.0984663e+04 2.78e-17 1.24e-02  -4.0 2.01e+00    -  2.17e-01 2.37e-01f  1
  46  4.0789091e+04 1.11e-16 7.70e-03  -4.3 4.47e-01    -  6.25e-01 1.08e-01f  1
  47  4.0047618e+04 1.94e-16 5.37e-03  -4.3 4.23e-01    -  4.05e-01 6.31e-01f  1
  48  4.1493619e+04 0.00e+00 2.87e-03  -4.0 2.87e-01    -  6.12e-01 9.36e-01f  1
  49  4.0548650e+04 8.33e-17 2.17e-03  -4.2 2.49e-01    -  1.00e+00 6.84e-01f  1
iter    objective    inf_pr   inf_du lg(mu)  ||d||  lg(rg) alpha_du alpha_pr  ls
  50  3.9941534e+04 5.00e-16 2.87e-03  -4.2 4.60e-01    -  1.00e+00 1.00e+00f  1
  51  3.9640327e+04 8.33e-17 2.21e-03  -4.4 6.39e-01    -  5.43e-01 1.87e-01f  1
  52  3.9495447e+04 1.39e-16 2.99e-03  -4.3 1.10e+00    -  5.46e-01 2.26e-01f  2
  53  4.1382783e+04 2.22e-16 4.07e-02  -4.0 6.39e-01    -  5.16e-01 7.04e-01f  1
  54  4.0680350e+04 5.55e-17 4.63e-03  -4.2 4.71e-01    -  5.16e-01 3.66e-01f  1
  55  3.9872868e+04 3.89e-16 8.73e-03  -4.2 4.60e-01    -  1.00e+00 6.58e-01f  1
  56  3.9790366e+04 8.33e-16 4.19e-03  -4.2 1.60e-01    -  1.00e+00 1.00e+00f  1
  57  3.9756241e+04 4.16e-16 1.62e-03  -4.2 1.93e-01    -  1.00e+00 1.00e+00f  1
  58  3.9750719e+04 4.72e-16 1.43e-03  -4.2 1.52e-01    -  1.00e+00 1.00e+00f  1
  59  3.9740930e+04 3.33e-16 8.51e-04  -4.2 1.73e-01    -  1.00e+00 3.27e-01f  2
iter    objective    inf_pr   inf_du lg(mu)  ||d||  lg(rg) alpha_du alpha_pr  ls
  60  3.9740930e+04 3.33e-16 7.52e-04  -4.2 5.16e-01    -  1.00e+00 6.44e-12h 38
  61  3.9740930e+04 3.61e-16 5.65e-04  -4.2 2.55e+00    -  3.39e-01 1.14e-13h 42
  62  3.8482695e+04 2.22e-16 2.25e-03  -6.3 2.30e+00    -  1.25e-01 2.77e-01f  1
  63  3.8203035e+04 2.22e-16 3.02e-03  -4.4 3.12e-01    -  9.99e-01 7.11e-01f  1
  64  3.8200333e+04 2.78e-17 2.74e-03  -4.4 7.46e-01    -  8.63e-01 2.09e-02f  5
  65  3.8873038e+04 2.50e-16 3.16e-02  -4.2 1.77e+00    -  3.55e-01 3.30e-01f  1
  66  3.8339974e+04 1.67e-16 4.07e-03  -4.4 5.02e-01    -  6.61e-01 9.21e-01f  1
  67  3.8183766e+04 2.78e-17 2.48e-03  -4.4 1.25e+00    -  1.95e-01 3.90e-01f  1
  68  3.7996465e+04 5.00e-16 2.16e-03  -4.5 1.20e+00    -  1.00e+00 2.47e-01f  1
  69  3.7523169e+04 8.33e-17 3.14e-03  -4.7 8.04e-01    -  9.71e-01 4.70e-01f  1
iter    objective    inf_pr   inf_du lg(mu)  ||d||  lg(rg) alpha_du alpha_pr  ls
  70  3.7408916e+04 8.33e-17 1.84e-03  -4.6 8.81e-01    -  5.00e-01 2.09e-01f  1
  71  3.7179737e+04 1.39e-16 1.52e-03  -4.7 5.94e-01    -  1.00e+00 3.64e-01f  1
  72  3.7067359e+04 1.67e-16 1.48e-03  -4.8 9.52e-01    -  1.00e+00 1.57e-01f  1
  73  3.7187776e+04 0.00e+00 1.22e-02  -4.5 1.63e+00    -  6.75e-01 1.49e-01f  1
  74  3.7064798e+04 3.05e-16 2.72e-03  -4.7 3.50e-01    -  8.68e-02 3.55e-01f  1
  75  3.6866809e+04 2.78e-17 2.24e-03  -4.7 2.11e-01    -  9.99e-01 1.00e+00f  1
  76  3.6866809e+04 1.94e-16 1.11e-02  -4.7 4.11e-01    -  4.64e-01 9.39e-13f 40
  77  3.6866809e+04 2.50e-16 1.31e-02  -4.8 1.08e+00    -  3.40e-01 1.46e-13f 42
  78  3.6866809e+04 2.22e-16 1.19e-02  -4.8 1.67e+00    -  3.86e-01 1.61e-13f 42
  79  3.6866809e+04 2.78e-16 8.60e-03  -4.8 8.41e-03    -  1.00e+00 3.64e-12h 39
iter    objective    inf_pr   inf_du lg(mu)  ||d||  lg(rg) alpha_du alpha_pr  ls
  80  3.6866809e+04 1.94e-16 8.35e-03  -4.8 7.86e-03    -  1.00e+00 1.46e-11h 37
  81  3.6866809e+04 1.11e-16 8.65e-03  -4.8 8.37e-03    -  1.00e+00 3.64e-12h 39
  82  3.6866809e+04 1.39e-16 8.77e-03  -4.8 8.62e-03    -  1.00e+00 4.55e-13h 42
Cannot call restoration phase at point that is almost feasible (violation 1.387779e-16).
Abort in line search due to no other fall back.

Number of Iterations....: 82

                                   (scaled)                 (unscaled)
Objective...............:   1.6380514852079315e+00    3.6866809360393898e+04
Dual infeasibility......:   8.7705839822755562e-03    1.9739516771832882e+02
Constraint violation....:   1.3877787807814457e-16    1.3877787807814457e-16
Variable bound violation:   0.0000000000000000e+00    0.0000000000000000e+00
Complementarity.........:   3.4989925409928090e-05    7.8750083331994591e-01
Overall NLP error.......:   8.7705839822755562e-03    1.9739516771832882e+02


Number of objective function evaluations             = 544
Number of objective gradient evaluations             = 84
Number of equality constraint evaluations            = 544
Number of inequality constraint evaluations          = 0
Number of equality constraint Jacobian evaluations   = 84
Number of inequality constraint Jacobian evaluations = 0
Number of Lagrangian Hessian evaluations             = 0
Total seconds in IPOPT                               = 37.468

EXIT: Error in step computation!
